g3 1 1 0	# problem r245ca
 2 0 14 0 0 	# vars, constraints, objectives, ranges, eqns
 0 13 0 0 0 0	# nonlinear constrs, objs; ccons: lin, nonlin, nd, nzlb
 0 0	# network constraints: nonlinear, linear
 0 2 0 	# nonlinear vars in constraints, objectives, both
 0 0 0 1	# linear network variables; functions; arith, flags
 0 0 0 0 0 	# discrete variables: binary, integer, nonlinear (b,c,o)
 0 20 	# nonzeros in Jacobian, obj. gradient
 0 0	# max name lengths: constraints, variables
 0 0 0 0 0	# common exprs: b,c,o,c1,o1
O0 0
o0
o54
5
o43
v0
o2
n7.888
o43
v1
o2
n0.8843
o43
o0
o16
o44
o2
n-1.9326585785463726
v1
n1
o2
n14.46
o43
o0
o16
o44
o2
n-2.5068704336751795
v1
n1
o2
n5.331
o43
o0
o16
o44
o2
n-6.323033268539
v1
n1
n-18.09410031
O1 0
o5
v0
n-1.0
O2 0
o16
o5
v0
n-2.0
O3 0
o0
o54
4
o2
n7.888
o5
v1
n-1.0
o2
o2
n36.249346470943095
o5
o0
o16
o44
o2
n-2.5068704336751795
v1
n1.0
n-1.0
o44
o2
n-2.5068704336751795
v1
o2
o2
n1.7090499810085573
o5
o0
o16
o44
o2
n-1.9326585785463726
v1
n1.0
n-1.0
o44
o2
n-1.9326585785463726
v1
o2
o2
n33.70809035458141
o5
o0
o16
o44
o2
n-6.323033268539
v1
n1.0
n-1.0
o44
o2
n-6.323033268539
v1
n8.996084665
O4 0
o54
7
o2
n-7.888
o5
v1
n-2.0
o2
o2
n-213.1373767309368
o5
o0
o16
o44
o2
n-6.323033268539
v1
n1.0
n-1.0
o44
o2
n-6.323033268539
v1
o2
o2
n-213.1373767309368
o5
o0
o16
o44
o2
n-6.323033268539
v1
n1.0
n-2.0
o44
o2
n-12.646066537078
v1
o2
o2
n-90.87241490805495
o5
o0
o16
o44
o2
n-2.5068704336751795
v1
n1.0
n-1.0
o44
o2
n-2.5068704336751795
v1
o2
o2
n-90.87241490805495
o5
o0
o16
o44
o2
n-2.5068704336751795
v1
n1.0
n-2.0
o44
o2
n-5.013740867350359
v1
o2
o2
n-3.3030101069607034
o5
o0
o16
o44
o2
n-1.9326585785463726
v1
n1.0
n-1.0
o44
o2
n-1.9326585785463726
v1
o2
o2
n-3.3030101069607034
o5
o0
o16
o44
o2
n-1.9326585785463726
v1
n1.0
n-2.0
o44
o2
n-3.865317157092745
v1
O5 0
o54
14
o2
o2
n0.04489247
o5
v0
n4
v1
o2
o2
n1.526476
v0
o5
v1
n0.26
o2
o2
n-2.40832
v0
v1
o2
o2
n-0.5288088
o5
v0
n2
o5
v1
n1.2
o2
o2
n0.18222346
o5
v0
n3
o5
v1
n0.67
o2
o2
o2
n-1.063228
v0
o5
v1
n1.92
o44
o16
o5
v0
n2
o2
o2
o2
n-0.223149
o5
v0
n3
o5
v1
n2
o44
o16
o5
v0
n2
o2
o2
o2
n1.18738
o5
v0
n2
o5
v1
n1.5
o44
o2
n-1.0
v0
o2
o2
o2
n-0.9772383
o5
v0
n2
o5
v1
n1.93
o44
o16
o5
v0
n2
o2
o2
o2
n-0.02296938
o5
v0
n7
o5
v1
n1.06
o44
o2
n-1.0
v0
o2
o2
o2
n1.364444
v0
o5
v1
n0.17
o44
o0
o2
n-1.16
o5
o0
v0
n-0.55
n2
o2
n-2.4
o5
o0
v1
n-1.265
n2
o2
o2
o2
n-0.5080666
v0
o5
v1
n3.9
o44
o0
o2
n-1.1
o5
o0
v0
n-0.724
n2
o2
n-1.5
o5
o0
v1
n-0.42
n2
o2
o2
o2
n-0.06649496
o5
v0
n3
v1
o44
o0
o2
n-1.64
o5
o0
v0
n-0.524
n2
o2
n-4.2
o5
o0
v1
n-0.864
n2
o2
o2
o2
n-1.128359
o5
v0
n3
v1
o44
o0
o2
n-13.8
o5
o0
v0
n-0.857
n2
o2
n-379
o5
o0
v1
n-1.15
n2
O6 0
o54
22
o2
n1.526476
o5
v1
n0.26
o2
o2
n0.54667038
o5
v0
n2.0
o5
v1
n0.67
o2
o2
n1.364444
o5
v1
n0.17
o44
o0
o2
n-1.16
o5
o0
v0
n-0.55
n2.0
o2
n-2.4
o5
o0
v1
n-1.265
n2.0
o2
o2
n0.17956988
v1
o5
v0
n3.0
o2
o2
n-0.5080666
o5
v1
n3.9
o44
o0
o2
n-1.5
o5
o0
v1
n-0.42
n2.0
o2
n-1.1
o5
o0
v0
n-0.724
n2.0
o2
o2
n-1.0576176
v0
o5
v1
n1.2
o2
o2
n-1.063228
o5
v1
n1.92
o44
o16
o5
v0
n2.0
o2
o2
o2
n2.37476
v0
o5
v1
n1.5
o44
o2
n-1.0
v0
o2
o2
o2
n2.126456
o5
v0
n2.0
o5
v1
n1.92
o44
o16
o5
v0
n2.0
o2
o2
o2
n0.446298
o5
v0
n4.0
o5
v1
n2.0
o44
o16
o5
v0
n2.0
o2
o2
o2
n1.9544766
o5
v0
n3.0
o5
v1
n1.93
o44
o16
o5
v0
n2.0
o2
o2
o2
n0.02296938
o5
v0
n7.0
o5
v1
n1.06
o44
o2
n-1.0
v0
o2
o2
o2
n-0.6694469999999999
o5
v0
n2.0
o5
v1
n2.0
o44
o16
o5
v0
n2.0
o2
o2
o2
n-1.18738
o5
v0
n2.0
o5
v1
n1.5
o44
o2
n-1.0
v0
o2
o2
o2
n-0.16078566
o5
v0
n6.0
o5
v1
n1.06
o44
o2
n-1.0
v0
o2
o2
o2
n-0.19948488000000003
v1
o5
v0
n2.0
o44
o0
o2
n-4.2
o5
o0
v1
n-0.864
n2.0
o2
n-1.64
o5
o0
v0
n-0.524
n2.0
o2
o2
o2
n-3.385077
v1
o5
v0
n2.0
o44
o0
o2
n-379.0
o5
o0
v1
n-1.15
n2.0
o2
n-13.8
o5
o0
v0
n-0.857
n2.0
o2
o2
o2
n-1.9544766
v0
o5
v1
n1.93
o44
o16
o5
v0
n2.0
o2
o2
o2
o2
n1.364444
v0
o5
v1
n0.17
o0
o2
n-2.32
v0
n1.276
o44
o0
o2
n-1.16
o5
o0
v0
n-0.55
n2.0
o2
n-2.4
o5
o0
v1
n-1.265
n2.0
o2
o2
o2
o2
n-0.5080666
v0
o5
v1
n3.9
o0
o2
n-2.2
v0
n1.5928
o44
o0
o2
n-1.5
o5
o0
v1
n-0.42
n2.0
o2
n-1.1
o5
o0
v0
n-0.724
n2.0
o2
o2
o2
o2
n-0.06649496
v1
o5
v0
n3.0
o0
o2
n-3.28
v0
n1.71872
o44
o0
o2
n-4.2
o5
o0
v1
n-0.864
n2.0
o2
n-1.64
o5
o0
v0
n-0.524
n2.0
o2
o2
o2
o2
n-1.128359
v1
o5
v0
n3.0
o0
o2
n-27.6
v0
n23.653200000000002
o44
o0
o2
n-379.0
o5
o0
v1
n-1.15
n2.0
o2
n-13.8
o5
o0
v0
n-0.857
n2.0
O7 0
o54
36
o2
n-1.0576176
o5
v1
n1.2
o2
o2
n0.53870964
v1
o5
v0
n2.0
o2
o2
n2.37476
o5
v1
n1.5
o44
o2
n-1.0
v0
o2
o2
n1.09334076
o5
v1
n0.67
v0
o2
o2
n-1.9544766
o5
v1
n1.93
o44
o16
o5
v0
n2.0
o2
o2
o2
n1.18738
o5
v1
n1.5
o5
v0
n2.0
o44
o2
n-1.0
v0
o2
o2
o2
n9.772383000000001
o5
v1
n1.93
o5
v0
n2.0
o44
o16
o5
v0
n2.0
o2
o2
o2
n0.32157132
o5
v1
n1.06
o5
v0
n6.0
o44
o2
n-1.0
v0
o2
o2
o2
n1.11774652
v0
o5
v1
n3.9
o44
o0
o2
n-1.5
o5
o0
v1
n-0.42
n2.0
o2
n-1.1
o5
o0
v0
n-0.724
n2.0
o2
o2
o2
n1.11774652
o5
v1
n3.9
o0
v0
n-0.724
o44
o0
o2
n-1.5
o5
o0
v1
n-0.42
n2.0
o2
n-1.1
o5
o0
v0
n-0.724
n2.0
o2
o2
o2
n1.364444
o5
v1
n0.17
o0
o2
n-2.32
v0
n1.276
o44
o0
o2
n-1.16
o5
o0
v0
n-0.55
n2.0
o2
n-2.4
o5
o0
v1
n-1.265
n2.0
o2
o2
o2
n3.1240859999999997
o5
v1
n2.0
o5
v0
n3.0
o44
o16
o5
v0
n2.0
o2
o2
o2
n6.379368
o5
v1
n1.92
v0
o44
o16
o5
v0
n2.0
o2
o2
o2
n0.2181034688
v1
o5
v0
n3.0
o44
o0
o2
n-4.2
o5
o0
v1
n-0.864
n2.0
o2
n-1.64
o5
o0
v0
n-0.524
n2.0
o2
o2
o2
n31.1427084
v1
o5
v0
n3.0
o44
o0
o2
n-379.0
o5
o0
v1
n-1.15
n2.0
o2
n-13.8
o5
o0
v0
n-0.857
n2.0
o2
o2
o2
n-1.3388939999999998
o5
v1
n2.0
v0
o44
o16
o5
v0
n2.0
o2
o2
o2
n-2.37476
v0
o5
v1
n1.5
o44
o2
n-1.0
v0
o2
o2
o2
n-2.37476
o5
v1
n1.5
v0
o44
o2
n-1.0
v0
o2
o2
o2
n-0.5080666
o5
v1
n3.9
o0
o2
n-2.2
v0
n1.5928
o44
o0
o2
n-1.5
o5
o0
v1
n-0.42
n2.0
o2
n-1.1
o5
o0
v0
n-0.724
n2.0
o2
o2
o2
n-4.252912
o5
v1
n1.92
o5
v0
n3.0
o44
o16
o5
v0
n2.0
o2
o2
o2
n-3.16551008
v0
o5
v1
n0.17
o44
o0
o2
n-1.16
o5
o0
v0
n-0.55
n2.0
o2
n-2.4
o5
o0
v1
n-1.265
n2.0
o2
o2
o2
n-3.16551008
o5
v1
n0.17
o0
v0
n-0.55
o44
o0
o2
n-1.16
o5
o0
v0
n-0.55
n2.0
o2
n-2.4
o5
o0
v1
n-1.265
n2.0
o2
o2
o2
n-0.39896976000000006
v1
v0
o44
o0
o2
n-4.2
o5
o0
v1
n-0.864
n2.0
o2
n-1.64
o5
o0
v0
n-0.524
n2.0
o2
o2
o2
n-6.770154
v1
v0
o44
o0
o2
n-379.0
o5
o0
v1
n-1.15
n2.0
o2
n-13.8
o5
o0
v0
n-0.857
n2.0
o2
o2
o2
n-0.892596
o5
v1
n2.0
o5
v0
n5.0
o44
o16
o5
v0
n2.0
o2
o2
o2
n-3.9089532
o5
v1
n1.93
o5
v0
n4.0
o44
o16
o5
v0
n2.0
o2
o2
o2
n-0.02296938
o5
v1
n1.06
o5
v0
n7.0
o44
o2
n-1.0
v0
o2
o2
o2
n-0.96471396
o5
v1
n1.06
o5
v0
n5.0
o44
o2
n-1.0
v0
o2
o2
o2
o2
n0.6543104064
v1
o5
v0
n2.0
o0
v0
n-0.524
o44
o0
o2
n-4.2
o5
o0
v1
n-0.864
n2.0
o2
n-1.64
o5
o0
v0
n-0.524
n2.0
o2
o2
o2
o2
n93.4281252
v1
o5
v0
n2.0
o0
v0
n-0.857
o44
o0
o2
n-379.0
o5
o0
v1
n-1.15
n2.0
o2
n-13.8
o5
o0
v0
n-0.857
n2.0
o2
o2
o2
o2
n-0.19948488000000003
v1
o5
v0
n2.0
o0
o2
n-3.28
v0
n1.71872
o44
o0
o2
n-4.2
o5
o0
v1
n-0.864
n2.0
o2
n-1.64
o5
o0
v0
n-0.524
n2.0
o2
o2
o2
o2
n-3.385077
v1
o5
v0
n2.0
o0
o2
n-27.6
v0
n23.653200000000002
o44
o0
o2
n-379.0
o5
o0
v1
n-1.15
n2.0
o2
n-13.8
o5
o0
v0
n-0.857
n2.0
o2
o2
o2
o2
o2
n1.11774652
v0
o5
v1
n3.9
o0
v0
n-0.724
o0
o2
n-2.2
v0
n1.5928
o44
o0
o2
n-1.5
o5
o0
v1
n-0.42
n2.0
o2
n-1.1
o5
o0
v0
n-0.724
n2.0
o2
o2
o2
o2
o2
n0.2181034688
v1
o5
v0
n3.0
o0
v0
n-0.524
o0
o2
n-3.28
v0
n1.71872
o44
o0
o2
n-4.2
o5
o0
v1
n-0.864
n2.0
o2
n-1.64
o5
o0
v0
n-0.524
n2.0
o2
o2
o2
o2
o2
n31.1427084
v1
o5
v0
n3.0
o0
v0
n-0.857
o0
o2
n-27.6
v0
n23.653200000000002
o44
o0
o2
n-379.0
o5
o0
v1
n-1.15
n2.0
o2
n-13.8
o5
o0
v0
n-0.857
n2.0
o2
o2
o2
o2
o2
n-3.16551008
v0
o5
v1
n0.17
o0
v0
n-0.55
o0
o2
n-2.32
v0
n1.276
o44
o0
o2
n-1.16
o5
o0
v0
n-0.55
n2.0
o2
n-2.4
o5
o0
v1
n-1.265
n2.0
O8 0
o54
17
o2
n0.04489247
o5
v0
n4.0
o2
o2
n0.39688376
v0
o5
v1
n-0.74
o2
o2
n0.12208971820000002
o5
v0
n3.0
o5
v1
n-0.32999999999999996
o2
o2
n-0.06649496
o5
v0
n3.0
o44
o0
o2
n-4.2
o5
o0
v1
n-0.864
n2.0
o2
n-1.64
o5
o0
v0
n-0.524
n2.0
o2
o2
n-1.128359
o5
v0
n3.0
o44
o0
o2
n-379.0
o5
o0
v1
n-1.15
n2.0
o2
n-13.8
o5
o0
v0
n-0.857
n2.0
o2
o2
n-0.6345705599999999
o5
v0
n2.0
o5
v1
n0.19999999999999996
o2
o2
o2
n1.7810700000000002
o5
v0
n2.0
o5
v1
n0.5
o44
o2
n-1.0
v0
o2
o2
o2
n0.23195548000000002
v0
o5
v1
n-0.83
o44
o0
o2
n-1.16
o5
o0
v0
n-0.55
n2.0
o2
n-2.4
o5
o0
v1
n-1.265
n2.0
o2
o2
o2
n-1.98145974
v0
o5
v1
n2.9
o44
o0
o2
n-1.5
o5
o0
v1
n-0.42
n2.0
o2
n-1.1
o5
o0
v0
n-0.724
n2.0
o2
o2
o2
n-0.024347542800000004
o5
v0
n7.0
o5
v1
n0.06000000000000005
o44
o2
n-1.0
v0
o2
o2
o2
n-0.446298
v1
o5
v0
n3.0
o44
o16
o5
v0
n2.0
o2
o2
o2
n-2.04139776
v0
o5
v1
n0.9199999999999999
o44
o16
o5
v0
n2.0
o2
o2
o2
n-1.8860699189999999
o5
v0
n2.0
o5
v1
n0.9299999999999999
o44
o16
o5
v0
n2.0
o2
o2
o2
o2
n1.364444
v0
o5
v1
n0.17
o0
o2
n-4.8
v1
n6.071999999999999
o44
o0
o2
n-1.16
o5
o0
v0
n-0.55
n2.0
o2
n-2.4
o5
o0
v1
n-1.265
n2.0
o2
o2
o2
o2
n-0.5080666
v0
o5
v1
n3.9
o0
o2
n-3.0
v1
n1.26
o44
o0
o2
n-1.5
o5
o0
v1
n-0.42
n2.0
o2
n-1.1
o5
o0
v0
n-0.724
n2.0
o2
o2
o2
o2
n-0.06649496
v1
o5
v0
n3.0
o0
o2
n-8.4
v1
n7.2576
o44
o0
o2
n-4.2
o5
o0
v1
n-0.864
n2.0
o2
n-1.64
o5
o0
v0
n-0.524
n2.0
o2
o2
o2
o2
n-1.128359
v1
o5
v0
n3.0
o0
o2
n-758.0
v1
n871.6999999999999
o44
o0
o2
n-379.0
o5
o0
v1
n-1.15
n2.0
o2
n-13.8
o5
o0
v0
n-0.857
n2.0
O9 0
o54
26
o2
o2
n-0.2936939824
v0
o5
v1
n-1.74
o2
o2
n-0.040289607006
o5
v0
n3.0
o5
v1
n-1.33
o2
o2
n-0.446298
o5
v0
n3.0
o44
o16
o5
v0
n2.0
o2
o2
n-0.12691411199999994
o5
v0
n2.0
o5
v1
n-0.8
o2
o2
o2
n0.5585576640000001
v1
o5
v0
n3.0
o44
o0
o2
n-4.2
o5
o0
v1
n-0.864
n2.0
o2
n-1.64
o5
o0
v0
n-0.524
n2.0
o2
o2
o2
n0.5585576640000001
o5
v0
n3.0
o0
v1
n-0.864
o44
o0
o2
n-4.2
o5
o0
v1
n-0.864
n2.0
o2
n-1.64
o5
o0
v0
n-0.524
n2.0
o2
o2
o2
n855.296122
v1
o5
v0
n3.0
o44
o0
o2
n-379.0
o5
o0
v1
n-1.15
n2.0
o2
n-13.8
o5
o0
v0
n-0.857
n2.0
o2
o2
o2
n855.296122
o5
v0
n3.0
o0
v1
n-1.15
o44
o0
o2
n-379.0
o5
o0
v1
n-1.15
n2.0
o2
n-13.8
o5
o0
v0
n-0.857
n2.0
o2
o2
o2
n0.8905350000000001
o5
v0
n2.0
o5
v1
n-0.5
o44
o2
n-1.0
v0
o2
o2
o2
n1.5241998
v0
o5
v1
n3.9
o44
o0
o2
n-1.5
o5
o0
v1
n-0.42
n2.0
o2
n-1.1
o5
o0
v0
n-0.724
n2.0
o2
o2
o2
n-0.1925230484
v0
o5
v1
n-1.83
o44
o0
o2
n-1.16
o5
o0
v0
n-0.55
n2.0
o2
n-2.4
o5
o0
v1
n-1.265
n2.0
o2
o2
o2
n-0.0014608525680000015
o5
v0
n7.0
o5
v1
n-0.94
o44
o2
n-1.0
v0
o2
o2
o2
n-1.8780859392
v0
o5
v1
n-0.08000000000000007
o44
o16
o5
v0
n2.0
o2
o2
o2
n-0.06649496
o5
v0
n3.0
o0
o2
n-8.4
v1
n7.2576
o44
o0
o2
n-4.2
o5
o0
v1
n-0.864
n2.0
o2
n-1.64
o5
o0
v0
n-0.524
n2.0
o2
o2
o2
n-1.128359
o5
v0
n3.0
o0
o2
n-758.0
v1
n871.6999999999999
o44
o0
o2
n-379.0
o5
o0
v1
n-1.15
n2.0
o2
n-13.8
o5
o0
v0
n-0.857
n2.0
o2
o2
o2
n-5.746233246
v0
o5
v1
n1.9
o44
o0
o2
n-1.5
o5
o0
v1
n-0.42
n2.0
o2
n-1.1
o5
o0
v0
n-0.724
n2.0
o2
o2
o2
n-6.5493312
v0
o5
v1
n0.17
o44
o0
o2
n-1.16
o5
o0
v0
n-0.55
n2.0
o2
n-2.4
o5
o0
v1
n-1.265
n2.0
o2
o2
o2
n-1.7540450246699997
o5
v0
n2.0
o5
v1
n-0.07000000000000006
o44
o16
o5
v0
n2.0
o2
o2
o2
o2
n5.94437922
v0
o5
v1
n2.9
o0
v1
n-0.42
o44
o0
o2
n-1.5
o5
o0
v1
n-0.42
n2.0
o2
n-1.1
o5
o0
v0
n-0.724
n2.0
o2
o2
o2
o2
n0.23195548000000002
v0
o5
v1
n-0.83
o0
o2
n-4.8
v1
n6.071999999999999
o44
o0
o2
n-1.16
o5
o0
v0
n-0.55
n2.0
o2
n-2.4
o5
o0
v1
n-1.265
n2.0
o2
o2
o2
o2
n-1.98145974
v0
o5
v1
n2.9
o0
o2
n-3.0
v1
n1.26
o44
o0
o2
n-1.5
o5
o0
v1
n-0.42
n2.0
o2
n-1.1
o5
o0
v0
n-0.724
n2.0
o2
o2
o2
o2
n-1.113386304
v0
o5
v1
n-0.83
o0
v1
n-1.265
o44
o0
o2
n-1.16
o5
o0
v0
n-0.55
n2.0
o2
n-2.4
o5
o0
v1
n-1.265
n2.0
o2
o2
o2
o2
o2
n0.5585576640000001
v1
o5
v0
n3.0
o0
v1
n-0.864
o0
o2
n-8.4
v1
n7.2576
o44
o0
o2
n-4.2
o5
o0
v1
n-0.864
n2.0
o2
n-1.64
o5
o0
v0
n-0.524
n2.0
o2
o2
o2
o2
o2
n855.296122
v1
o5
v0
n3.0
o0
v1
n-1.15
o0
o2
n-758.0
v1
n871.6999999999999
o44
o0
o2
n-379.0
o5
o0
v1
n-1.15
n2.0
o2
n-13.8
o5
o0
v0
n-0.857
n2.0
o2
o2
o2
o2
o2
n1.5241998
v0
o5
v1
n3.9
o0
v1
n-0.42
o0
o2
n-3.0
v1
n1.26
o44
o0
o2
n-1.5
o5
o0
v1
n-0.42
n2.0
o2
n-1.1
o5
o0
v0
n-0.724
n2.0
o2
o2
o2
o2
o2
n-6.5493312
v0
o5
v1
n0.17
o0
v1
n-1.265
o0
o2
n-4.8
v1
n6.071999999999999
o44
o0
o2
n-1.16
o5
o0
v0
n-0.55
n2.0
o2
n-2.4
o5
o0
v1
n-1.265
n2.0
O10 0
o0
o54
30
o2
n0.17956988
o5
v0
n3.0
o2
n0.39688376
o5
v1
n-0.74
o2
o2
n0.36626915460000004
o5
v1
n-0.32999999999999996
o5
v0
n2.0
o2
o2
n0.23195548000000002
o5
v1
n-0.83
o44
o0
o2
n-1.16
o5
o0
v0
n-0.55
n2.0
o2
n-2.4
o5
o0
v1
n-1.265
n2.0
o2
o2
n-1.98145974
o5
v1
n2.9
o44
o0
o2
n-1.5
o5
o0
v1
n-0.42
n2.0
o2
n-1.1
o5
o0
v0
n-0.724
n2.0
o2
o2
n-0.19948488000000003
o5
v0
n2.0
o44
o0
o2
n-4.2
o5
o0
v1
n-0.864
n2.0
o2
n-1.64
o5
o0
v0
n-0.524
n2.0
o2
o2
n-3.385077
o5
v0
n2.0
o44
o0
o2
n-379.0
o5
o0
v1
n-1.15
n2.0
o2
n-13.8
o5
o0
v0
n-0.857
n2.0
o2
o2
n-2.04139776
o5
v1
n0.9199999999999999
o44
o16
o5
v0
n2.0
o2
o2
n-1.2691411199999998
v0
o5
v1
n0.19999999999999996
o2
o2
o2
n0.024347542800000004
o5
v1
n0.06000000000000005
o5
v0
n7.0
o44
o2
n-1.0
v0
o2
o2
o2
n3.5621400000000003
v0
o5
v1
n0.5
o44
o2
n-1.0
v0
o2
o2
o2
n0.892596
v1
o5
v0
n4.0
o44
o16
o5
v0
n2.0
o2
o2
o2
n4.08279552
o5
v1
n0.9199999999999999
o5
v0
n2.0
o44
o16
o5
v0
n2.0
o2
o2
o2
n1.5241998
o5
v1
n3.9
o0
v1
n-0.42
o44
o0
o2
n-1.5
o5
o0
v1
n-0.42
n2.0
o2
n-1.1
o5
o0
v0
n-0.724
n2.0
o2
o2
o2
n3.7721398379999997
o5
v1
n0.9299999999999999
o5
v0
n3.0
o44
o16
o5
v0
n2.0
o2
o2
o2
n-1.3388939999999998
v1
o5
v0
n2.0
o44
o16
o5
v0
n2.0
o2
o2
o2
n-0.17043279960000002
o5
v1
n0.06000000000000005
o5
v0
n6.0
o44
o2
n-1.0
v0
o2
o2
o2
n-1.7810700000000002
o5
v1
n0.5
o5
v0
n2.0
o44
o2
n-1.0
v0
o2
o2
o2
n-0.06649496
o5
v0
n3.0
o0
o2
n-3.28
v0
n1.71872
o44
o0
o2
n-4.2
o5
o0
v1
n-0.864
n2.0
o2
n-1.64
o5
o0
v0
n-0.524
n2.0
o2
o2
o2
n-1.128359
o5
v0
n3.0
o0
o2
n-27.6
v0
n23.653200000000002
o44
o0
o2
n-379.0
o5
o0
v1
n-1.15
n2.0
o2
n-13.8
o5
o0
v0
n-0.857
n2.0
o2
o2
o2
n-6.5493312
o5
v1
n0.17
o0
v1
n-1.265
o44
o0
o2
n-1.16
o5
o0
v0
n-0.55
n2.0
o2
n-2.4
o5
o0
v1
n-1.265
n2.0
o2
o2
o2
n-3.7721398379999997
v0
o5
v1
n0.9299999999999999
o44
o16
o5
v0
n2.0
o2
o2
o2
o2
n2565.888366
v1
o5
v0
n2.0
o0
v1
n-1.15
o44
o0
o2
n-379.0
o5
o0
v1
n-1.15
n2.0
o2
n-13.8
o5
o0
v0
n-0.857
n2.0
o2
o2
o2
o2
n1.6756729920000004
v1
o5
v0
n2.0
o0
v1
n-0.864
o44
o0
o2
n-4.2
o5
o0
v1
n-0.864
n2.0
o2
n-1.64
o5
o0
v0
n-0.524
n2.0
o2
o2
o2
o2
n0.23195548000000002
v0
o5
v1
n-0.83
o0
o2
n-2.32
v0
n1.276
o44
o0
o2
n-1.16
o5
o0
v0
n-0.55
n2.0
o2
n-2.4
o5
o0
v1
n-1.265
n2.0
o2
o2
o2
o2
n-1.98145974
v0
o5
v1
n2.9
o0
o2
n-2.2
v0
n1.5928
o44
o0
o2
n-1.5
o5
o0
v1
n-0.42
n2.0
o2
n-1.1
o5
o0
v0
n-0.724
n2.0
o2
o2
o2
o2
o2
n0.5585576640000001
v1
o5
v0
n3.0
o0
v1
n-0.864
o0
o2
n-3.28
v0
n1.71872
o44
o0
o2
n-4.2
o5
o0
v1
n-0.864
n2.0
o2
n-1.64
o5
o0
v0
n-0.524
n2.0
o2
o2
o2
o2
o2
n855.296122
v1
o5
v0
n3.0
o0
v1
n-1.15
o0
o2
n-27.6
v0
n23.653200000000002
o44
o0
o2
n-379.0
o5
o0
v1
n-1.15
n2.0
o2
n-13.8
o5
o0
v0
n-0.857
n2.0
o2
o2
o2
o2
o2
n1.5241998
v0
o5
v1
n3.9
o0
v1
n-0.42
o0
o2
n-2.2
v0
n1.5928
o44
o0
o2
n-1.5
o5
o0
v1
n-0.42
n2.0
o2
n-1.1
o5
o0
v0
n-0.724
n2.0
o2
o2
o2
o2
o2
n-6.5493312
v0
o5
v1
n0.17
o0
v1
n-1.265
o0
o2
n-2.32
v0
n1.276
o44
o0
o2
n-1.16
o5
o0
v0
n-0.55
n2.0
o2
n-2.4
o5
o0
v1
n-1.265
n2.0
n-2.40832
O11 0
o0
o54
5
o2
n4.0075
o5
o0
o16
o3
n1
v1
n1
n0.48
o2
n-4.6786
o16
o3
n1
v1
o2
n6.6575
o5
o0
o16
o3
n1
v1
n1
n1.6
o2
n-5.096
o5
o0
o16
o3
n1
v1
n1
n2.4
o2
n2.364
o5
o0
o16
o3
n1
v1
n1
n3.5
n-3.6786000000000003
O12 0
o44
o54
5
o2
n-4.8138
o5
o0
o16
o3
n1
v1
n1
n0.505
o2
n-5.557
o5
o0
o16
o3
n1
v1
n1
n1.65
o2
n-11.257
o5
o0
o16
o3
n1
v1
n1
n2.5
o2
n-55.775
o5
o0
o16
o3
n1
v1
n1
n5.5
o2
n-138.45
o5
o0
o16
o3
n1
v1
n1
n12
O13 0
n0.0
x2
0 1.00000001
1 1.0
r
b
3
3
k1
0
G0 2
0 0
1 8.996084665
G1 1
0 0
G2 1
0 0
G3 1
1 0
G4 1
1 0
G5 2
0 0
1 0
G6 2
0 0
1 -2.40832
G7 2
0 0
1 0
G8 2
0 -2.40832
1 0
G9 2
0 0
1 0
G10 2
0 0
1 0
G11 1
1 0
G12 1
1 0
